c File:  zeroin.i.3.col
c
c SOURCE: Gary Lewandowski (gary@cs.wisc.edu)
c
c DESCRIPTION: Coloring problem generated from a register allocation
c              problem based on real code.
c
c graph #3 from register allocation file zeroin.i
p edge 206 3540
e 2 1
e 3 1
e 3 2
e 4 1
e 4 2
e 4 3
e 5 1
e 5 2
e 5 3
e 5 4
e 6 1
e 6 2
e 6 3
e 6 4
e 6 5
e 7 1
e 7 2
e 7 3
e 7 4
e 7 5
e 7 6
e 8 1
e 8 2
e 8 3
e 8 4
e 8 5
e 8 6
e 8 7
e 9 1
e 9 2
e 9 3
e 9 4
e 9 5
e 9 6
e 9 7
e 9 8
e 10 1
e 10 2
e 10 3
e 10 4
e 10 5
e 10 6
e 10 7
e 10 8
e 10 9
e 11 1
e 11 2
e 11 3
e 11 4
e 11 5
e 11 6
e 11 7
e 11 8
e 11 9
e 11 10
e 12 1
e 12 2
e 12 3
e 12 4
e 12 5
e 12 6
e 12 7
e 12 8
e 12 9
e 12 10
e 12 11
e 13 1
e 13 2
e 13 3
e 13 4
e 13 5
e 13 6
e 13 7
e 13 8
e 13 9
e 13 10
e 13 11
e 13 12
e 14 1
e 14 2
e 14 3
e 14 4
e 14 5
e 14 6
e 14 7
e 14 8
e 14 9
e 14 10
e 14 11
e 14 12
e 14 13
e 15 1
e 15 2
e 15 3
e 15 4
e 15 5
e 15 6
e 15 7
e 15 8
e 15 9
e 15 10
e 15 11
e 15 12
e 15 13
e 15 14
e 16 1
e 16 2
e 16 3
e 16 4
e 16 5
e 16 6
e 16 7
e 16 8
e 16 9
e 16 10
e 16 11
e 16 12
e 16 13
e 16 14
e 16 15
e 18 17
e 19 17
e 19 18
e 20 17
e 20 18
e 20 19
e 21 17
e 21 18
e 21 19
e 21 20
e 22 17
e 22 18
e 22 19
e 22 20
e 22 21
e 23 17
e 23 18
e 23 19
e 23 20
e 23 21
e 23 22
e 24 17
e 24 18
e 24 19
e 24 20
e 24 21
e 24 22
e 24 23
e 25 17
e 25 18
e 25 19
e 25 20
e 25 21
e 25 22
e 25 23
e 25 24
e 26 17
e 26 18
e 26 19
e 26 20
e 26 21
e 26 22
e 26 23
e 26 24
e 26 25
e 27 17
e 27 18
e 27 19
e 27 20
e 27 21
e 27 22
e 27 23
e 27 24
e 27 25
e 27 26
e 28 17
e 28 18
e 28 19
e 28 20
e 28 21
e 28 22
e 28 23
e 28 24
e 28 25
e 28 26
e 28 27
e 29 17
e 29 18
e 29 19
e 29 20
e 29 21
e 29 22
e 29 23
e 29 24
e 29 25
e 29 26
e 29 27
e 29 28
e 30 17
e 30 18
e 30 19
e 30 20
e 30 21
e 30 22
e 30 23
e 30 24
e 30 25
e 30 26
e 30 27
e 30 28
e 30 29
e 31 17
e 31 18
e 31 19
e 31 20
e 31 21
e 31 22
e 31 23
e 31 24
e 31 25
e 31 26
e 31 27
e 31 28
e 31 29
e 31 30
e 32 17
e 32 18
e 32 19
e 32 20
e 32 21
e 32 22
e 32 23
e 32 24
e 32 25
e 32 26
e 32 27
e 32 28
e 32 29
e 32 30
e 32 31
e 33 1
e 33 2
e 33 3
e 33 4
e 33 5
e 33 6
e 33 7
e 33 8
e 33 9
e 33 10
e 33 11
e 33 12
e 33 13
e 33 14
e 33 15
e 33 16
e 33 17
e 33 27
e 33 28
e 33 29
e 33 30
e 33 31
e 33 32
e 36 1
e 36 2
e 36 3
e 36 4
e 36 5
e 36 6
e 36 7
e 36 8
e 36 9
e 36 10
e 36 11
e 36 12
e 36 13
e 36 14
e 36 15
e 36 16
e 36 17
e 36 27
e 36 28
e 36 29
e 36 30
e 36 31
e 36 32
e 36 33
e 41 1
e 41 2
e 41 3
e 41 4
e 41 5
e 41 6
e 41 7
e 41 8
e 41 9
e 41 10
e 41 11
e 41 12
e 41 13
e 41 14
e 41 15
e 41 16
e 41 17
e 41 27
e 41 28
e 41 29
e 41 30
e 41 31
e 41 32
e 41 33
e 41 36
e 43 1
e 43 2
e 43 3
e 43 4
e 43 5
e 43 6
e 43 7
e 43 8
e 43 9
e 43 10
e 43 11
e 43 12
e 43 13
e 43 14
e 43 15
e 43 16
e 43 17
e 43 27
e 43 28
e 43 29
e 43 30
e 43 31
e 43 32
e 43 33
e 43 36
e 43 41
e 45 1
e 45 2
e 45 3
e 45 4
e 45 5
e 45 6
e 45 7
e 45 8
e 45 9
e 45 10
e 45 11
e 45 12
e 45 13
e 45 14
e 45 15
e 45 16
e 45 17
e 45 27
e 45 28
e 45 29
e 45 30
e 45 31
e 45 32
e 45 33
e 45 36
e 45 41
e 45 43
e 47 1
e 47 2
e 47 3
e 47 4
e 47 5
e 47 6
e 47 7
e 47 8
e 47 9
e 47 10
e 47 11
e 47 12
e 47 13
e 47 14
e 47 15
e 47 16
e 47 17
e 47 27
e 47 28
e 47 29
e 47 30
e 47 31
e 47 32
e 47 33
e 47 36
e 48 1
e 48 2
e 48 3
e 48 4
e 48 5
e 48 6
e 48 7
e 48 8
e 48 9
e 48 10
e 48 11
e 48 12
e 48 13
e 48 14
e 48 15
e 48 16
e 48 17
e 48 27
e 48 28
e 48 29
e 48 30
e 48 31
e 48 32
e 48 33
e 48 36
e 48 41
e 48 43
e 48 45
e 48 47
e 51 1
e 51 2
e 51 3
e 51 4
e 51 5
e 51 6
e 51 7
e 51 8
e 51 9
e 51 10
e 51 11
e 51 12
e 51 13
e 51 14
e 51 15
e 51 16
e 51 17
e 51 27
e 51 33
e 51 36
e 51 41
e 51 43
e 51 45
e 51 47
e 51 48
e 54 1
e 54 2
e 54 3
e 54 4
e 54 5
e 54 6
e 54 7
e 54 8
e 54 9
e 54 10
e 54 11
e 54 12
e 54 13
e 54 14
e 54 15
e 54 16
e 54 17
e 54 27
e 54 28
e 54 29
e 54 30
e 54 31
e 54 32
e 54 33
e 54 36
e 54 41
e 54 43
e 54 45
e 54 48
e 54 51
e 56 1
e 56 2
e 56 3
e 56 4
e 56 5
e 56 6
e 56 7
e 56 8
e 56 9
e 56 10
e 56 11
e 56 12
e 56 13
e 56 14
e 56 15
e 56 16
e 56 17
e 56 27
e 56 36
e 56 41
e 56 43
e 56 45
e 56 51
e 56 54
e 57 1
e 57 2
e 57 3
e 57 4
e 57 5
e 57 6
e 57 7
e 57 8
e 57 9
e 57 10
e 57 11
e 57 12
e 57 13
e 57 14
e 57 15
e 57 16
e 57 17
e 57 27
e 57 36
e 57 41
e 57 43
e 57 45
e 57 51
e 57 54
e 57 56
e 59 1
e 59 2
e 59 3
e 59 4
e 59 5
e 59 6
e 59 7
e 59 8
e 59 9
e 59 10
e 59 11
e 59 12
e 59 13
e 59 14
e 59 15
e 59 16
e 59 17
e 59 27
e 59 33
e 59 36
e 59 41
e 59 43
e 59 45
e 59 48
e 59 51
e 59 54
e 60 1
e 60 2
e 60 3
e 60 4
e 60 5
e 60 6
e 60 7
e 60 8
e 60 9
e 60 10
e 60 11
e 60 12
e 60 13
e 60 14
e 60 15
e 60 16
e 60 17
e 60 27
e 60 33
e 60 36
e 60 41
e 60 43
e 60 45
e 60 48
e 60 51
e 60 54
e 60 59
e 61 1
e 61 2
e 61 3
e 61 4
e 61 5
e 61 6
e 61 7
e 61 8
e 61 9
e 61 10
e 61 11
e 61 12
e 61 13
e 61 14
e 61 15
e 61 16
e 61 17
e 61 27
e 61 33
e 61 36
e 61 41
e 61 43
e 61 45
e 61 48
e 61 51
e 61 54
e 61 56
e 61 57
e 61 60
e 62 1
e 62 2
e 62 3
e 62 5
e 62 6
e 62 7
e 62 8
e 62 9
e 62 10
e 62 11
e 62 12
e 62 13
e 62 14
e 62 16
e 62 17
e 62 18
e 62 19
e 62 20
e 62 21
e 62 22
e 62 23
e 62 24
e 62 25
e 62 26
e 62 27
e 62 28
e 62 29
e 62 30
e 62 31
e 62 32
e 63 1
e 63 2
e 63 3
e 63 6
e 63 7
e 63 8
e 63 9
e 63 10
e 63 11
e 63 12
e 63 13
e 63 14
e 63 16
e 63 17
e 63 18
e 63 19
e 63 20
e 63 21
e 63 22
e 63 23
e 63 24
e 63 25
e 63 26
e 63 27
e 63 28
e 63 29
e 63 30
e 63 31
e 63 32
e 64 1
e 64 2
e 64 3
e 64 7
e 64 8
e 64 9
e 64 10
e 64 11
e 64 12
e 64 13
e 64 14
e 64 16
e 64 17
e 64 18
e 64 19
e 64 20
e 64 21
e 64 22
e 64 23
e 64 24
e 64 25
e 64 26
e 64 27
e 64 28
e 64 29
e 64 30
e 64 31
e 64 32
e 65 1
e 65 2
e 65 3
e 65 8
e 65 9
e 65 10
e 65 11
e 65 12
e 65 13
e 65 14
e 65 16
e 65 17
e 65 18
e 65 19
e 65 20
e 65 21
e 65 22
e 65 23
e 65 24
e 65 25
e 65 26
e 65 27
e 65 28
e 65 29
e 65 30
e 65 31
e 65 32
e 66 1
e 66 2
e 66 3
e 66 9
e 66 10
e 66 11
e 66 12
e 66 13
e 66 14
e 66 16
e 66 17
e 66 18
e 66 19
e 66 20
e 66 21
e 66 22
e 66 23
e 66 24
e 66 25
e 66 26
e 66 27
e 66 28
e 66 29
e 66 30
e 66 31
e 66 32
e 67 1
e 67 2
e 67 3
e 67 10
e 67 11
e 67 12
e 67 13
e 67 14
e 67 15
e 67 16
e 67 17
e 67 18
e 67 19
e 67 20
e 67 21
e 67 22
e 67 23
e 67 24
e 67 25
e 67 26
e 67 27
e 67 28
e 67 29
e 67 30
e 67 31
e 67 32
e 68 1
e 68 2
e 68 3
e 68 11
e 68 12
e 68 13
e 68 14
e 68 15
e 68 16
e 68 17
e 68 18
e 68 19
e 68 20
e 68 21
e 68 22
e 68 23
e 68 24
e 68 25
e 68 26
e 68 27
e 68 28
e 68 29
e 68 30
e 68 31
e 68 32
e 68 67
e 69 1
e 69 2
e 69 3
e 69 11
e 69 12
e 69 13
e 69 14
e 69 15
e 69 16
e 69 17
e 69 18
e 69 19
e 69 20
e 69 21
e 69 22
e 69 23
e 69 24
e 69 25
e 69 26
e 69 27
e 69 28
e 69 29
e 69 30
e 69 31
e 69 32
e 69 67
e 69 68
e 70 1
e 70 2
e 70 3
e 70 4
e 70 5
e 70 6
e 70 7
e 70 8
e 70 9
e 70 10
e 70 11
e 70 12
e 70 13
e 70 14
e 70 15
e 70 16
e 70 17
e 70 19
e 70 20
e 70 21
e 70 22
e 70 23
e 70 24
e 70 25
e 70 26
e 71 1
e 71 2
e 71 3
e 71 4
e 71 5
e 71 6
e 71 7
e 71 8
e 71 9
e 71 10
e 71 11
e 71 12
e 71 13
e 71 14
e 71 15
e 71 16
e 71 17
e 71 20
e 71 21
e 71 22
e 71 23
e 71 24
e 71 25
e 71 26
e 72 1
e 72 2
e 72 3
e 72 4
e 72 5
e 72 6
e 72 7
e 72 8
e 72 9
e 72 10
e 72 11
e 72 12
e 72 13
e 72 14
e 72 15
e 72 16
e 72 17
e 72 21
e 72 22
e 72 23
e 72 24
e 72 25
e 72 26
e 73 1
e 73 2
e 73 3
e 73 4
e 73 5
e 73 6
e 73 7
e 73 8
e 73 9
e 73 10
e 73 11
e 73 12
e 73 13
e 73 14
e 73 15
e 73 16
e 73 17
e 73 22
e 73 23
e 73 24
e 73 25
e 73 26
e 74 1
e 74 2
e 74 3
e 74 4
e 74 5
e 74 6
e 74 7
e 74 8
e 74 9
e 74 10
e 74 11
e 74 12
e 74 13
e 74 14
e 74 15
e 74 16
e 74 17
e 74 23
e 74 24
e 74 25
e 74 26
e 75 1
e 75 2
e 75 3
e 75 4
e 75 5
e 75 6
e 75 7
e 75 8
e 75 9
e 75 10
e 75 11
e 75 12
e 75 13
e 75 14
e 75 15
e 75 16
e 75 17
e 75 24
e 75 25
e 75 26
e 76 1
e 76 2
e 76 3
e 76 4
e 76 5
e 76 6
e 76 7
e 76 8
e 76 9
e 76 10
e 76 11
e 76 12
e 76 13
e 76 14
e 76 15
e 76 16
e 76 17
e 76 25
e 76 26
e 77 1
e 77 2
e 77 3
e 77 4
e 77 5
e 77 6
e 77 7
e 77 8
e 77 9
e 77 10
e 77 11
e 77 12
e 77 13
e 77 14
e 77 15
e 77 16
e 77 17
e 77 26
e 78 1
e 78 2
e 78 3
e 78 4
e 78 5
e 78 6
e 78 7
e 78 8
e 78 9
e 78 10
e 78 11
e 78 12
e 78 13
e 78 14
e 78 15
e 78 16
e 78 17
e 79 1
e 79 2
e 79 3
e 79 11
e 79 12
e 79 13
e 79 14
e 79 15
e 79 16
e 79 17
e 79 18
e 79 19
e 79 20
e 79 21
e 79 22
e 79 23
e 79 24
e 79 25
e 79 26
e 79 27
e 79 28
e 79 29
e 79 30
e 79 31
e 79 32
e 79 67
e 79 68
e 79 69
e 80 1
e 80 2
e 80 3
e 80 4
e 80 5
e 80 6
e 80 7
e 80 8
e 80 9
e 80 10
e 80 11
e 80 12
e 80 13
e 80 14
e 80 15
e 80 16
e 80 17
e 81 1
e 81 2
e 81 3
e 81 11
e 81 12
e 81 13
e 81 14
e 81 15
e 81 16
e 81 17
e 81 18
e 81 19
e 81 20
e 81 21
e 81 22
e 81 23
e 81 24
e 81 25
e 81 26
e 81 27
e 81 28
e 81 29
e 81 30
e 81 31
e 81 32
e 81 67
e 81 68
e 81 69
e 81 79
e 82 1
e 82 2
e 82 3
e 82 4
e 82 5
e 82 6
e 82 7
e 82 8
e 82 9
e 82 10
e 82 11
e 82 12
e 82 13
e 82 14
e 82 15
e 82 16
e 82 17
e 83 1
e 83 2
e 83 3
e 83 11
e 83 12
e 83 13
e 83 14
e 83 15
e 83 16
e 83 17
e 83 18
e 83 19
e 83 20
e 83 21
e 83 22
e 83 23
e 83 24
e 83 25
e 83 26
e 83 27
e 83 28
e 83 29
e 83 30
e 83 31
e 83 32
e 83 67
e 83 68
e 83 69
e 83 79
e 83 81
e 84 1
e 84 2
e 84 3
e 84 11
e 84 12
e 84 13
e 84 14
e 84 15
e 84 16
e 84 17
e 84 18
e 84 19
e 84 20
e 84 21
e 84 22
e 84 23
e 84 24
e 84 25
e 84 26
e 84 27
e 84 28
e 84 29
e 84 30
e 84 31
e 84 32
e 84 67
e 84 68
e 84 69
e 84 79
e 84 81
e 84 83
e 85 1
e 85 2
e 85 3
e 85 4
e 85 5
e 85 6
e 85 7
e 85 8
e 85 9
e 85 10
e 85 11
e 85 12
e 85 13
e 85 14
e 85 15
e 85 16
e 85 17
e 87 1
e 87 2
e 87 3
e 87 4
e 87 5
e 87 6
e 87 7
e 87 8
e 87 9
e 87 10
e 87 11
e 87 12
e 87 13
e 87 14
e 87 15
e 87 16
e 87 17
e 87 47
e 89 1
e 89 2
e 89 3
e 89 4
e 89 5
e 89 6
e 89 7
e 89 8
e 89 9
e 89 10
e 89 11
e 89 12
e 89 13
e 89 14
e 89 15
e 89 16
e 89 17
e 89 47
e 90 1
e 90 2
e 90 3
e 90 4
e 90 5
e 90 6
e 90 7
e 90 8
e 90 9
e 90 10
e 90 11
e 90 12
e 90 13
e 90 14
e 90 15
e 90 16
e 90 17
e 90 47
e 90 89
e 91 1
e 91 2
e 91 3
e 91 4
e 91 5
e 91 6
e 91 7
e 91 8
e 91 9
e 91 10
e 91 11
e 91 12
e 91 13
e 91 14
e 91 15
e 91 16
e 91 17
e 91 47
e 95 1
e 95 2
e 95 3
e 95 4
e 95 5
e 95 6
e 95 7
e 95 8
e 95 9
e 95 10
e 95 11
e 95 12
e 95 13
e 95 14
e 95 15
e 95 16
e 95 17
e 95 27
e 95 33
e 95 36
e 95 47
e 95 48
e 95 51
e 97 1
e 97 2
e 97 3
e 97 4
e 97 5
e 97 6
e 97 7
e 97 8
e 97 9
e 97 10
e 97 11
e 97 12
e 97 13
e 97 14
e 97 15
e 97 16
e 97 17
e 97 27
e 97 33
e 97 36
e 97 48
e 97 51
e 102 1
e 102 2
e 102 3
e 102 4
e 102 5
e 102 6
e 102 7
e 102 8
e 102 9
e 102 10
e 102 11
e 102 12
e 102 13
e 102 14
e 102 15
e 102 16
e 102 17
e 102 27
e 102 33
e 102 36
e 102 41
e 102 43
e 102 45
e 102 48
e 102 51
e 102 54
e 103 1
e 103 2
e 103 3
e 103 4
e 103 5
e 103 6
e 103 7
e 103 8
e 103 9
e 103 10
e 103 11
e 103 12
e 103 13
e 103 14
e 103 15
e 103 16
e 103 17
e 103 27
e 103 33
e 103 36
e 103 41
e 103 43
e 103 45
e 103 48
e 103 51
e 103 54
e 104 1
e 104 2
e 104 3
e 104 4
e 104 5
e 104 6
e 104 7
e 104 8
e 104 9
e 104 10
e 104 11
e 104 12
e 104 13
e 104 14
e 104 15
e 104 16
e 104 17
e 104 27
e 104 33
e 104 36
e 104 41
e 104 43
e 104 45
e 104 48
e 104 51
e 104 54
e 104 103
e 105 1
e 105 2
e 105 3
e 105 4
e 105 5
e 105 6
e 105 7
e 105 8
e 105 9
e 105 10
e 105 11
e 105 12
e 105 13
e 105 14
e 105 15
e 105 16
e 105 17
e 105 27
e 105 33
e 105 36
e 105 41
e 105 43
e 105 45
e 105 48
e 105 51
e 105 54
e 106 1
e 106 2
e 106 3
e 106 4
e 106 5
e 106 6
e 106 7
e 106 8
e 106 9
e 106 10
e 106 11
e 106 12
e 106 13
e 106 14
e 106 15
e 106 16
e 106 17
e 106 27
e 106 33
e 106 36
e 106 41
e 106 43
e 106 45
e 106 48
e 106 51
e 106 54
e 113 1
e 113 2
e 113 3
e 113 4
e 113 5
e 113 6
e 113 7
e 113 8
e 113 9
e 113 10
e 113 11
e 113 12
e 113 13
e 113 14
e 113 15
e 113 16
e 113 17
e 113 27
e 113 33
e 113 36
e 113 41
e 113 43
e 113 45
e 113 48
e 113 51
e 113 54
e 113 106
e 116 1
e 116 2
e 116 3
e 116 4
e 116 5
e 116 6
e 116 7
e 116 8
e 116 9
e 116 10
e 116 11
e 116 12
e 116 13
e 116 14
e 116 15
e 116 16
e 116 17
e 116 27
e 116 33
e 116 36
e 116 41
e 116 43
e 116 45
e 116 48
e 116 51
e 116 54
e 116 59
e 116 60
e 117 1
e 117 2
e 117 3
e 117 4
e 117 5
e 117 6
e 117 7
e 117 8
e 117 9
e 117 10
e 117 11
e 117 12
e 117 13
e 117 14
e 117 15
e 117 16
e 117 17
e 117 27
e 117 33
e 117 36
e 117 41
e 117 43
e 117 45
e 117 48
e 117 51
e 117 54
e 117 59
e 117 60
e 117 116
e 118 1
e 118 2
e 118 3
e 118 4
e 118 5
e 118 6
e 118 7
e 118 8
e 118 9
e 118 10
e 118 11
e 118 12
e 118 13
e 118 14
e 118 15
e 118 16
e 118 17
e 118 27
e 118 33
e 118 36
e 118 41
e 118 43
e 118 45
e 118 48
e 118 51
e 118 54
e 118 59
e 118 60
e 120 1
e 120 2
e 120 3
e 120 4
e 120 5
e 120 6
e 120 7
e 120 8
e 120 9
e 120 10
e 120 11
e 120 12
e 120 13
e 120 14
e 120 15
e 120 16
e 120 17
e 120 27
e 120 33
e 120 36
e 120 41
e 120 43
e 120 45
e 120 48
e 120 51
e 120 54
e 120 60
e 120 61
e 121 1
e 121 2
e 121 3
e 121 4
e 121 5
e 121 6
e 121 7
e 121 8
e 121 9
e 121 10
e 121 11
e 121 12
e 121 13
e 121 14
e 121 15
e 121 16
e 121 17
e 121 27
e 121 33
e 121 36
e 121 41
e 121 43
e 121 45
e 121 48
e 121 51
e 121 54
e 121 56
e 121 57
e 121 61
e 122 1
e 122 2
e 122 3
e 122 4
e 122 5
e 122 6
e 122 7
e 122 8
e 122 9
e 122 10
e 122 11
e 122 12
e 122 13
e 122 14
e 122 15
e 122 16
e 122 17
e 122 27
e 122 33
e 122 36
e 122 41
e 122 43
e 122 45
e 122 48
e 122 51
e 122 54
e 122 61
e 122 121
e 123 1
e 123 2
e 123 3
e 123 4
e 123 5
e 123 6
e 123 7
e 123 8
e 123 9
e 123 10
e 123 11
e 123 12
e 123 13
e 123 14
e 123 15
e 123 16
e 123 17
e 123 27
e 123 33
e 123 36
e 123 41
e 123 43
e 123 45
e 123 48
e 123 51
e 123 54
e 123 61
e 123 121
e 124 1
e 124 2
e 124 3
e 124 4
e 124 5
e 124 6
e 124 7
e 124 8
e 124 9
e 124 10
e 124 11
e 124 12
e 124 13
e 124 14
e 124 15
e 124 16
e 124 17
e 124 36
e 125 1
e 125 2
e 125 3
e 125 4
e 125 5
e 125 6
e 125 7
e 125 8
e 125 9
e 125 10
e 125 11
e 125 12
e 125 13
e 125 14
e 125 15
e 125 16
e 125 17
e 125 36
e 126 1
e 126 2
e 126 3
e 126 4
e 126 5
e 126 6
e 126 7
e 126 8
e 126 9
e 126 10
e 126 11
e 126 12
e 126 13
e 126 14
e 126 15
e 126 16
e 126 17
e 126 36
e 127 1
e 127 2
e 127 3
e 127 4
e 127 5
e 127 6
e 127 7
e 127 8
e 127 9
e 127 10
e 127 11
e 127 12
e 127 13
e 127 14
e 127 15
e 127 16
e 127 17
e 127 27
e 127 36
e 128 1
e 128 2
e 128 3
e 128 4
e 128 5
e 128 6
e 128 7
e 128 8
e 128 9
e 128 10
e 128 11
e 128 12
e 128 13
e 128 14
e 128 15
e 128 16
e 128 17
e 128 26
e 128 27
e 128 36
e 128 127
e 129 1
e 129 2
e 129 3
e 129 4
e 129 5
e 129 6
e 129 7
e 129 8
e 129 9
e 129 10
e 129 11
e 129 12
e 129 13
e 129 14
e 129 15
e 129 16
e 129 17
e 129 25
e 129 26
e 129 27
e 129 36
e 129 127
e 129 128
e 130 1
e 130 2
e 130 3
e 130 4
e 130 5
e 130 6
e 130 7
e 130 8
e 130 9
e 130 10
e 130 11
e 130 12
e 130 13
e 130 14
e 130 15
e 130 16
e 130 17
e 130 24
e 130 25
e 130 26
e 130 27
e 130 36
e 130 127
e 130 128
e 130 129
e 131 1
e 131 2
e 131 3
e 131 4
e 131 5
e 131 6
e 131 7
e 131 8
e 131 9
e 131 10
e 131 11
e 131 12
e 131 13
e 131 14
e 131 15
e 131 16
e 131 17
e 131 23
e 131 24
e 131 25
e 131 26
e 131 27
e 131 36
e 131 127
e 131 128
e 131 129
e 131 130
e 132 1
e 132 2
e 132 3
e 132 4
e 132 5
e 132 6
e 132 7
e 132 8
e 132 9
e 132 10
e 132 11
e 132 12
e 132 13
e 132 14
e 132 15
e 132 16
e 132 17
e 132 22
e 132 23
e 132 24
e 132 25
e 132 26
e 132 27
e 132 36
e 132 127
e 132 128
e 132 129
e 132 130
e 132 131
e 133 1
e 133 2
e 133 3
e 133 4
e 133 5
e 133 6
e 133 7
e 133 8
e 133 9
e 133 10
e 133 11
e 133 12
e 133 13
e 133 14
e 133 15
e 133 16
e 133 17
e 133 21
e 133 22
e 133 23
e 133 24
e 133 25
e 133 26
e 133 27
e 133 36
e 133 127
e 133 128
e 133 129
e 133 130
e 133 131
e 133 132
e 134 1
e 134 2
e 134 3
e 134 4
e 134 5
e 134 6
e 134 7
e 134 8
e 134 9
e 134 10
e 134 11
e 134 12
e 134 13
e 134 14
e 134 15
e 134 16
e 134 17
e 134 20
e 134 21
e 134 22
e 134 23
e 134 24
e 134 25
e 134 26
e 134 27
e 134 36
e 134 127
e 134 128
e 134 129
e 134 130
e 134 131
e 134 132
e 134 133
e 135 1
e 135 2
e 135 3
e 135 4
e 135 5
e 135 6
e 135 7
e 135 8
e 135 9
e 135 10
e 135 11
e 135 12
e 135 13
e 135 14
e 135 15
e 135 16
e 135 17
e 135 19
e 135 20
e 135 21
e 135 22
e 135 23
e 135 24
e 135 25
e 135 26
e 135 27
e 135 36
e 135 127
e 135 128
e 135 129
e 135 130
e 135 131
e 135 132
e 135 133
e 135 134
e 136 1
e 136 2
e 136 9
e 136 10
e 136 16
e 136 17
e 136 18
e 136 19
e 136 20
e 136 21
e 136 22
e 136 23
e 136 24
e 136 25
e 136 26
e 136 27
e 136 28
e 136 29
e 136 30
e 136 31
e 136 32
e 136 67
e 136 68
e 136 69
e 137 1
e 137 2
e 137 8
e 137 9
e 137 10
e 137 16
e 137 17
e 137 18
e 137 19
e 137 20
e 137 21
e 137 22
e 137 23
e 137 24
e 137 25
e 137 26
e 137 27
e 137 28
e 137 29
e 137 30
e 137 31
e 137 32
e 137 67
e 137 68
e 137 69
e 137 136
e 138 1
e 138 2
e 138 7
e 138 8
e 138 9
e 138 10
e 138 16
e 138 17
e 138 18
e 138 19
e 138 20
e 138 21
e 138 22
e 138 23
e 138 24
e 138 25
e 138 26
e 138 27
e 138 28
e 138 29
e 138 30
e 138 31
e 138 32
e 138 67
e 138 68
e 138 69
e 138 136
e 138 137
e 139 1
e 139 2
e 139 6
e 139 7
e 139 8
e 139 9
e 139 10
e 139 16
e 139 17
e 139 18
e 139 19
e 139 20
e 139 21
e 139 22
e 139 23
e 139 24
e 139 25
e 139 26
e 139 27
e 139 28
e 139 29
e 139 30
e 139 31
e 139 32
e 139 67
e 139 68
e 139 69
e 139 136
e 139 137
e 139 138
e 140 1
e 140 2
e 140 5
e 140 6
e 140 7
e 140 8
e 140 9
e 140 10
e 140 16
e 140 17
e 140 18
e 140 19
e 140 20
e 140 21
e 140 22
e 140 23
e 140 24
e 140 25
e 140 26
e 140 27
e 140 28
e 140 29
e 140 30
e 140 31
e 140 32
e 140 67
e 140 68
e 140 69
e 140 136
e 140 137
e 140 138
e 140 139
e 141 1
e 141 2
e 141 3
e 141 4
e 141 5
e 141 6
e 141 7
e 141 8
e 141 9
e 141 10
e 141 11
e 141 12
e 141 13
e 141 14
e 141 15
e 141 16
e 141 17
e 141 27
e 141 33
e 141 36
e 141 41
e 141 43
e 141 45
e 141 48
e 141 51
e 141 54
e 141 61
e 141 121
e 142 1
e 142 2
e 142 3
e 142 4
e 142 5
e 142 6
e 142 7
e 142 8
e 142 9
e 142 10
e 142 11
e 142 12
e 142 13
e 142 14
e 142 15
e 142 16
e 142 17
e 142 27
e 142 33
e 142 36
e 142 41
e 142 43
e 142 45
e 142 48
e 142 51
e 142 54
e 142 61
e 142 121
e 143 1
e 143 2
e 143 3
e 143 4
e 143 5
e 143 6
e 143 7
e 143 8
e 143 9
e 143 10
e 143 11
e 143 12
e 143 13
e 143 14
e 143 15
e 143 16
e 143 17
e 143 27
e 143 33
e 143 36
e 143 41
e 143 43
e 143 45
e 143 48
e 143 51
e 143 54
e 143 61
e 143 121
e 144 1
e 144 2
e 144 3
e 144 4
e 144 5
e 144 6
e 144 7
e 144 8
e 144 9
e 144 10
e 144 11
e 144 12
e 144 13
e 144 14
e 144 15
e 144 16
e 144 17
e 144 27
e 144 33
e 144 36
e 144 41
e 144 43
e 144 45
e 144 48
e 144 51
e 144 54
e 144 61
e 144 121
e 147 1
e 147 2
e 147 3
e 147 4
e 147 5
e 147 6
e 147 7
e 147 8
e 147 9
e 147 10
e 147 11
e 147 12
e 147 13
e 147 14
e 147 15
e 147 16
e 147 17
e 147 27
e 147 33
e 147 36
e 147 41
e 147 43
e 147 45
e 147 48
e 147 54
e 147 61
e 147 121
e 148 1
e 148 2
e 148 3
e 148 4
e 148 5
e 148 6
e 148 7
e 148 8
e 148 9
e 148 10
e 148 11
e 148 12
e 148 13
e 148 14
e 148 15
e 148 16
e 148 17
e 148 27
e 148 33
e 148 36
e 148 41
e 148 43
e 148 45
e 148 48
e 148 54
e 148 61
e 148 121
e 149 1
e 149 2
e 149 3
e 149 4
e 149 5
e 149 6
e 149 7
e 149 8
e 149 9
e 149 10
e 149 11
e 149 12
e 149 13
e 149 14
e 149 15
e 149 16
e 149 17
e 149 27
e 149 33
e 149 36
e 149 41
e 149 43
e 149 45
e 149 48
e 149 51
e 149 54
e 151 1
e 151 2
e 151 3
e 151 4
e 151 5
e 151 6
e 151 7
e 151 8
e 151 9
e 151 10
e 151 11
e 151 12
e 151 13
e 151 14
e 151 15
e 151 16
e 151 17
e 151 27
e 151 33
e 151 36
e 151 41
e 151 43
e 151 45
e 151 48
e 151 51
e 151 54
e 157 1
e 157 2
e 157 3
e 157 4
e 157 5
e 157 6
e 157 7
e 157 8
e 157 9
e 157 10
e 157 11
e 157 12
e 157 13
e 157 14
e 157 15
e 157 16
e 157 17
e 157 27
e 157 33
e 157 36
e 157 41
e 157 43
e 157 45
e 157 48
e 157 51
e 157 54
e 157 61
e 157 121
e 158 1
e 158 2
e 158 3
e 158 4
e 158 5
e 158 6
e 158 7
e 158 8
e 158 9
e 158 10
e 158 11
e 158 12
e 158 13
e 158 14
e 158 15
e 158 16
e 158 17
e 158 27
e 158 33
e 158 36
e 158 41
e 158 43
e 158 45
e 158 48
e 158 51
e 158 54
e 158 61
e 158 121
e 158 157
e 159 1
e 159 2
e 159 3
e 159 4
e 159 5
e 159 6
e 159 7
e 159 8
e 159 9
e 159 10
e 159 11
e 159 12
e 159 13
e 159 14
e 159 15
e 159 16
e 159 17
e 159 27
e 159 33
e 159 36
e 159 41
e 159 43
e 159 45
e 159 48
e 159 51
e 159 54
e 159 61
e 159 121
e 160 1
e 160 2
e 160 3
e 160 4
e 160 5
e 160 6
e 160 7
e 160 8
e 160 9
e 160 10
e 160 11
e 160 12
e 160 13
e 160 14
e 160 15
e 160 16
e 160 17
e 160 27
e 160 33
e 160 36
e 160 41
e 160 43
e 160 45
e 160 48
e 160 51
e 160 54
e 160 61
e 160 121
e 161 1
e 161 2
e 161 3
e 161 4
e 161 5
e 161 6
e 161 7
e 161 8
e 161 9
e 161 10
e 161 11
e 161 12
e 161 13
e 161 14
e 161 15
e 161 16
e 161 17
e 161 27
e 161 36
e 161 41
e 161 43
e 161 45
e 161 51
e 161 54
e 161 56
e 161 61
e 161 121
e 162 1
e 162 2
e 162 3
e 162 4
e 162 5
e 162 6
e 162 7
e 162 8
e 162 9
e 162 10
e 162 11
e 162 12
e 162 13
e 162 14
e 162 15
e 162 16
e 162 17
e 162 27
e 162 36
e 162 41
e 162 43
e 162 45
e 162 51
e 162 54
e 162 61
e 162 121
e 162 161
e 163 1
e 163 2
e 163 3
e 163 4
e 163 5
e 163 6
e 163 7
e 163 8
e 163 9
e 163 10
e 163 11
e 163 12
e 163 13
e 163 14
e 163 15
e 163 16
e 163 17
e 163 27
e 163 36
e 163 41
e 163 43
e 163 45
e 163 51
e 163 54
e 163 61
e 163 121
e 163 161
e 165 1
e 165 2
e 165 3
e 165 4
e 165 5
e 165 6
e 165 7
e 165 8
e 165 9
e 165 10
e 165 11
e 165 12
e 165 13
e 165 14
e 165 15
e 165 16
e 165 17
e 165 27
e 165 36
e 165 41
e 165 43
e 165 45
e 165 51
e 165 54
e 165 56
e 165 61
e 165 121
e 165 161
e 167 1
e 167 2
e 167 3
e 167 4
e 167 5
e 167 6
e 167 7
e 167 8
e 167 9
e 167 10
e 167 11
e 167 12
e 167 13
e 167 14
e 167 15
e 167 16
e 167 17
e 167 27
e 167 36
e 167 41
e 167 43
e 167 45
e 167 51
e 167 54
e 167 57
e 167 61
e 167 121
e 168 1
e 168 2
e 168 3
e 168 4
e 168 5
e 168 6
e 168 7
e 168 8
e 168 9
e 168 10
e 168 11
e 168 12
e 168 13
e 168 14
e 168 15
e 168 16
e 168 17
e 168 27
e 168 36
e 168 41
e 168 43
e 168 45
e 168 51
e 168 54
e 168 57
e 168 61
e 168 121
e 168 167
e 169 1
e 169 2
e 169 3
e 169 4
e 169 5
e 169 6
e 169 7
e 169 8
e 169 9
e 169 10
e 169 11
e 169 12
e 169 13
e 169 14
e 169 15
e 169 16
e 169 17
e 169 27
e 169 36
e 169 41
e 169 43
e 169 45
e 169 51
e 169 54
e 169 57
e 169 61
e 169 121
e 169 167
e 170 1
e 170 2
e 170 3
e 170 4
e 170 5
e 170 6
e 170 7
e 170 8
e 170 9
e 170 10
e 170 11
e 170 12
e 170 13
e 170 14
e 170 15
e 170 16
e 170 17
e 170 27
e 170 36
e 170 41
e 170 43
e 170 45
e 170 51
e 170 54
e 170 57
e 170 61
e 170 121
e 170 167
e 170 169
e 171 1
e 171 2
e 171 3
e 171 4
e 171 5
e 171 6
e 171 7
e 171 8
e 171 9
e 171 10
e 171 11
e 171 12
e 171 13
e 171 14
e 171 15
e 171 16
e 171 17
e 171 27
e 171 36
e 171 41
e 171 43
e 171 45
e 171 51
e 171 54
e 171 57
e 171 61
e 171 121
e 171 167
e 171 169
e 172 1
e 172 2
e 172 3
e 172 4
e 172 5
e 172 6
e 172 7
e 172 8
e 172 9
e 172 10
e 172 11
e 172 12
e 172 13
e 172 14
e 172 15
e 172 16
e 172 17
e 172 27
e 172 36
e 172 41
e 172 43
e 172 45
e 172 51
e 172 54
e 172 57
e 172 61
e 172 121
e 172 167
e 172 169
e 173 1
e 173 2
e 173 3
e 173 4
e 173 5
e 173 6
e 173 7
e 173 8
e 173 9
e 173 10
e 173 11
e 173 12
e 173 13
e 173 14
e 173 15
e 173 16
e 173 17
e 173 27
e 173 36
e 173 41
e 173 43
e 173 45
e 173 51
e 173 54
e 173 57
e 173 61
e 173 121
e 173 167
e 173 169
e 173 172
e 174 1
e 174 2
e 174 3
e 174 4
e 174 5
e 174 6
e 174 7
e 174 8
e 174 9
e 174 10
e 174 11
e 174 12
e 174 13
e 174 14
e 174 15
e 174 16
e 174 17
e 174 27
e 174 36
e 174 41
e 174 43
e 174 45
e 174 51
e 174 54
e 174 57
e 174 61
e 174 121
e 174 167
e 174 169
e 174 172
e 175 1
e 175 2
e 175 3
e 175 4
e 175 5
e 175 6
e 175 7
e 175 8
e 175 9
e 175 10
e 175 11
e 175 12
e 175 13
e 175 14
e 175 15
e 175 16
e 175 17
e 175 27
e 175 36
e 175 41
e 175 43
e 175 45
e 175 51
e 175 54
e 175 57
e 175 61
e 175 121
e 175 167
e 175 169
e 176 1
e 176 2
e 176 3
e 176 4
e 176 5
e 176 6
e 176 7
e 176 8
e 176 9
e 176 10
e 176 11
e 176 12
e 176 13
e 176 14
e 176 15
e 176 16
e 176 17
e 176 27
e 176 36
e 176 41
e 176 43
e 176 45
e 176 51
e 176 54
e 176 57
e 176 61
e 176 121
e 176 167
e 177 1
e 177 2
e 177 3
e 177 4
e 177 5
e 177 6
e 177 7
e 177 8
e 177 9
e 177 10
e 177 11
e 177 12
e 177 13
e 177 14
e 177 15
e 177 16
e 177 17
e 177 27
e 177 36
e 177 41
e 177 43
e 177 45
e 177 51
e 177 54
e 177 57
e 177 61
e 177 121
e 177 167
e 178 1
e 178 2
e 178 3
e 178 4
e 178 5
e 178 6
e 178 7
e 178 8
e 178 9
e 178 10
e 178 11
e 178 12
e 178 13
e 178 14
e 178 15
e 178 16
e 178 17
e 178 27
e 178 36
e 178 41
e 178 43
e 178 51
e 178 54
e 178 57
e 178 61
e 178 121
e 178 167
e 179 1
e 179 2
e 179 3
e 179 4
e 179 5
e 179 6
e 179 7
e 179 8
e 179 9
e 179 10
e 179 11
e 179 12
e 179 13
e 179 14
e 179 15
e 179 16
e 179 17
e 179 27
e 179 36
e 179 41
e 179 43
e 179 51
e 179 54
e 179 57
e 179 61
e 179 121
e 179 167
e 180 1
e 180 2
e 180 3
e 180 4
e 180 5
e 180 6
e 180 7
e 180 8
e 180 9
e 180 10
e 180 11
e 180 12
e 180 13
e 180 14
e 180 15
e 180 16
e 180 17
e 180 27
e 180 36
e 180 41
e 180 43
e 180 51
e 180 54
e 180 57
e 180 61
e 180 121
e 180 167
e 181 1
e 181 2
e 181 3
e 181 4
e 181 5
e 181 6
e 181 7
e 181 8
e 181 9
e 181 10
e 181 11
e 181 12
e 181 13
e 181 14
e 181 15
e 181 16
e 181 17
e 181 27
e 181 36
e 181 41
e 181 43
e 181 51
e 181 54
e 181 57
e 181 61
e 181 121
e 181 167
e 185 1
e 185 2
e 185 3
e 185 4
e 185 5
e 185 6
e 185 7
e 185 8
e 185 9
e 185 10
e 185 11
e 185 12
e 185 13
e 185 14
e 185 15
e 185 16
e 185 17
e 185 27
e 185 36
e 185 41
e 185 43
e 185 45
e 185 48
e 185 51
e 185 54
e 185 61
e 185 121
e 186 1
e 186 2
e 186 3
e 186 4
e 186 5
e 186 6
e 186 7
e 186 8
e 186 9
e 186 10
e 186 11
e 186 12
e 186 13
e 186 14
e 186 15
e 186 16
e 186 17
e 186 27
e 186 36
e 186 41
e 186 43
e 186 45
e 186 48
e 186 51
e 186 54
e 186 56
e 186 61
e 186 121
e 186 185
e 187 1
e 187 2
e 187 3
e 187 4
e 187 5
e 187 6
e 187 7
e 187 8
e 187 9
e 187 10
e 187 11
e 187 12
e 187 13
e 187 14
e 187 15
e 187 16
e 187 17
e 187 27
e 187 36
e 187 41
e 187 43
e 187 45
e 187 48
e 187 51
e 187 54
e 187 61
e 187 121
e 187 185
e 187 186
e 188 1
e 188 2
e 188 3
e 188 4
e 188 5
e 188 6
e 188 7
e 188 8
e 188 9
e 188 10
e 188 11
e 188 12
e 188 13
e 188 14
e 188 15
e 188 16
e 188 17
e 188 27
e 188 36
e 188 41
e 188 43
e 188 45
e 188 51
e 188 54
e 188 56
e 188 61
e 188 121
e 188 185
e 188 186
e 188 187
e 189 1
e 189 2
e 189 3
e 189 4
e 189 5
e 189 6
e 189 7
e 189 8
e 189 9
e 189 10
e 189 11
e 189 12
e 189 13
e 189 14
e 189 15
e 189 16
e 189 17
e 189 27
e 189 36
e 189 41
e 189 43
e 189 45
e 189 51
e 189 54
e 189 61
e 189 121
e 189 185
e 189 186
e 189 187
e 189 188
e 190 1
e 190 2
e 190 3
e 190 4
e 190 5
e 190 6
e 190 7
e 190 8
e 190 9
e 190 10
e 190 11
e 190 12
e 190 13
e 190 14
e 190 15
e 190 16
e 190 17
e 190 27
e 190 36
e 190 41
e 190 43
e 190 45
e 190 51
e 190 54
e 190 61
e 190 121
e 190 185
e 190 186
e 190 187
e 190 188
e 191 1
e 191 2
e 191 3
e 191 4
e 191 5
e 191 6
e 191 7
e 191 8
e 191 9
e 191 10
e 191 11
e 191 12
e 191 13
e 191 14
e 191 15
e 191 16
e 191 17
e 191 27
e 191 36
e 191 41
e 191 43
e 191 45
e 191 51
e 191 54
e 191 61
e 191 121
e 191 185
e 191 186
e 191 187
e 191 188
e 192 1
e 192 2
e 192 3
e 192 4
e 192 5
e 192 6
e 192 7
e 192 8
e 192 9
e 192 10
e 192 11
e 192 12
e 192 13
e 192 14
e 192 15
e 192 16
e 192 17
e 192 27
e 192 36
e 192 41
e 192 43
e 192 45
e 192 51
e 192 54
e 192 61
e 192 121
e 192 185
e 192 186
e 192 187
e 192 188
e 192 191
e 193 1
e 193 2
e 193 3
e 193 4
e 193 5
e 193 6
e 193 7
e 193 8
e 193 9
e 193 10
e 193 11
e 193 12
e 193 13
e 193 14
e 193 15
e 193 16
e 193 17
e 193 27
e 193 36
e 193 41
e 193 43
e 193 45
e 193 51
e 193 54
e 193 61
e 193 121
e 193 185
e 193 186
e 193 187
e 193 188
e 194 1
e 194 2
e 194 3
e 194 4
e 194 5
e 194 6
e 194 7
e 194 8
e 194 9
e 194 10
e 194 11
e 194 12
e 194 13
e 194 14
e 194 15
e 194 16
e 194 17
e 194 27
e 194 36
e 194 41
e 194 43
e 194 45
e 194 51
e 194 54
e 194 61
e 194 121
e 194 185
e 194 186
e 194 187
e 194 188
e 194 193
e 195 1
e 195 2
e 195 3
e 195 4
e 195 5
e 195 6
e 195 7
e 195 8
e 195 9
e 195 10
e 195 11
e 195 12
e 195 13
e 195 14
e 195 15
e 195 16
e 195 17
e 195 27
e 195 36
e 195 41
e 195 43
e 195 45
e 195 51
e 195 54
e 195 56
e 195 61
e 195 121
e 195 185
e 195 186
e 195 188
e 195 193
e 196 1
e 196 2
e 196 3
e 196 4
e 196 5
e 196 6
e 196 7
e 196 8
e 196 9
e 196 10
e 196 11
e 196 12
e 196 13
e 196 14
e 196 15
e 196 16
e 196 17
e 196 27
e 196 36
e 196 41
e 196 43
e 196 45
e 196 51
e 196 54
e 196 61
e 196 121
e 196 186
e 196 188
e 196 193
e 196 195
e 197 1
e 197 2
e 197 3
e 197 4
e 197 5
e 197 6
e 197 7
e 197 8
e 197 9
e 197 10
e 197 11
e 197 12
e 197 13
e 197 14
e 197 15
e 197 16
e 197 17
e 197 27
e 197 36
e 197 41
e 197 43
e 197 45
e 197 51
e 197 54
e 197 61
e 197 121
e 197 186
e 197 188
e 197 195
e 199 1
e 199 2
e 199 3
e 199 4
e 199 5
e 199 6
e 199 7
e 199 8
e 199 9
e 199 10
e 199 11
e 199 12
e 199 13
e 199 14
e 199 15
e 199 16
e 199 17
e 199 27
e 199 36
e 199 41
e 199 43
e 199 45
e 199 51
e 199 54
e 199 56
e 199 61
e 199 121
e 199 186
e 199 188
e 199 195
e 200 1
e 200 2
e 200 3
e 200 4
e 200 5
e 200 6
e 200 7
e 200 8
e 200 9
e 200 10
e 200 11
e 200 12
e 200 13
e 200 14
e 200 15
e 200 16
e 200 17
e 200 27
e 200 36
e 200 41
e 200 43
e 200 45
e 200 51
e 200 54
e 200 56
e 200 61
e 200 121
e 200 188
e 200 195
e 201 1
e 201 2
e 201 3
e 201 4
e 201 5
e 201 6
e 201 7
e 201 8
e 201 9
e 201 10
e 201 11
e 201 12
e 201 13
e 201 14
e 201 15
e 201 16
e 201 17
e 201 27
e 201 36
e 201 41
e 201 43
e 201 45
e 201 51
e 201 54
e 201 56
e 201 61
e 201 121
e 201 188
e 202 1
e 202 2
e 202 3
e 202 4
e 202 5
e 202 6
e 202 7
e 202 8
e 202 9
e 202 10
e 202 11
e 202 12
e 202 13
e 202 14
e 202 15
e 202 16
e 202 17
e 202 27
e 202 36
e 202 41
e 202 43
e 202 45
e 202 51
e 202 54
e 202 56
e 202 61
e 202 121
e 202 188
e 202 201
e 203 1
e 203 2
e 203 3
e 203 4
e 203 5
e 203 6
e 203 7
e 203 8
e 203 9
e 203 10
e 203 11
e 203 12
e 203 13
e 203 14
e 203 15
e 203 16
e 203 17
e 203 27
e 203 36
e 203 41
e 203 43
e 203 45
e 203 51
e 203 54
e 203 56
e 203 61
e 203 121
e 203 201
e 205 1
e 205 2
e 205 3
e 205 4
e 205 5
e 205 6
e 205 7
e 205 8
e 205 9
e 205 10
e 205 11
e 205 12
e 205 13
e 205 14
e 205 15
e 205 16
e 205 17
e 205 27
e 205 33
e 205 36
e 205 41
e 205 43
e 205 45
e 205 48
e 205 51
e 205 54
e 206 1
e 206 2
e 206 3
e 206 4
e 206 5
e 206 6
e 206 7
e 206 8
e 206 9
e 206 10
e 206 11
e 206 12
e 206 13
e 206 14
e 206 15
e 206 16
e 206 17
e 206 27
e 206 33
e 206 36
e 206 41
e 206 43
e 206 45
e 206 48
e 206 51
e 206 54
e 206 205
